(declare-const X String)
; /^\/[\w-]{48}\.[a-z]{2,8}[0-9]?$/U
(assert (not (str.in_re X (re.++ (str.to_re "//") ((_ re.loop 48 48) (re.union (str.to_re "-") (re.range "0" "9") (re.range "A" "Z") (re.range "a" "z") (str.to_re "_"))) (str.to_re ".") ((_ re.loop 2 8) (re.range "a" "z")) (re.opt (re.range "0" "9")) (str.to_re "/U\u{a}")))))
; Explorer\u{2F}sto=notificationfind
(assert (not (str.in_re X (str.to_re "Explorer/sto=notification\u{13}find\u{a}"))))
; Host\u{3a}[^\n\r]*A-311\s+lnzzlnbk\u{2f}pkrm\.finSubject\u{3a}Basic
(assert (not (str.in_re X (re.++ (str.to_re "Host:") (re.* (re.union (str.to_re "\u{a}") (str.to_re "\u{d}"))) (str.to_re "A-311") (re.+ (re.union (str.to_re " ") (str.to_re "\u{9}") (str.to_re "\u{a}") (str.to_re "\u{c}") (str.to_re "\u{d}"))) (str.to_re "lnzzlnbk/pkrm.finSubject:Basic\u{a}")))))
; /filename=[^\n]*\u{2e}gif/i
(assert (str.in_re X (re.++ (str.to_re "/filename=") (re.* (re.comp (str.to_re "\u{a}"))) (str.to_re ".gif/i\u{a}"))))
(check-sat)
